%%%mzn-stat: initTime=0.004616965
%%%mzn-stat: objective=376
%%%mzn-stat: nodes=2408
%%%mzn-stat: restarts=0
%%%mzn-stat: peakDepth=119
%%%mzn-stat: solveTime=0.074775668
%%%mzn-stat: variables=386
%%%mzn-stat: propagators=267
%%%mzn-stat: failures=635
%%%mzn-stat: propagations=80120
%%%mzn-stat: nogoods=635
%%%mzn-stat: AverageConflictSize=11.32283464566929
%%%mzn-stat: NumUnitNogoodsLearned=375
%%%mzn-stat: AverageLearnedNogoodLength=7.390551181102362
%%%mzn-stat: AverageBacktrackAmount=0
%%%mzn-stat: AverageLbd=3.5952755905511813
%%%mzn-stat-end
maxleg = 376;
succ = array1d(1..20,[19, 5, 12, 7, 18, 14, 15, 11, 10, 16, 4, 6, 20, 1, 17, 2, 13, 3, 8, 9]);
% time elapsed: 1.42 s
----------
==========
% time elapsed: 1.42 s
%%%mzn-stat: initTime=0.004616965
%%%mzn-stat: objective=376
%%%mzn-stat: nodes=2408
%%%mzn-stat: restarts=0
%%%mzn-stat: peakDepth=119
%%%mzn-stat: solveTime=0.074778736
%%%mzn-stat: variables=386
%%%mzn-stat: propagators=267
%%%mzn-stat: failures=635
%%%mzn-stat: propagations=80120
%%%mzn-stat: nogoods=635
%%%mzn-stat: AverageConflictSize=11.32283464566929
%%%mzn-stat: NumUnitNogoodsLearned=375
%%%mzn-stat: AverageLearnedNogoodLength=7.390551181102362
%%%mzn-stat: AverageBacktrackAmount=0
%%%mzn-stat: AverageLbd=3.5952755905511813
%%%mzn-stat-end
